PointerNetwork/Ptr_Net_TSPTW/benchmark/n20w60/n20w60.005.txt.solution
1 14 9 4 17 2 5 15 16 11 18 8 13 6 10 7 19 21 20 12 3 
338
